c b=3,c=1039
p cnf 16 38
1 2 3 -6 0
1 2 3 -7 0
2 3 -8 0
1 3 -9 0
3 -16 0
1 2 -3 6 0
-3 7 0
1 -3 8 0
1 2 -3 9 0
-3 16 0
1 2 -5 0
1 2 -10 0
2 -15 0
-2 3 6 0
3 -10 0
-2 -3 -6 0
-2 -3 10 0
1 -2 5 0
-2 7 0
1 -2 8 0
1 -2 -9 0
-2 15 0
1 -4 0
1 -14 0
-1 3 6 0
-1 -3 -6 0
-1 -3 10 0
-1 2 5 0
-1 2 -9 0
-1 -2 -5 0
-1 -2 9 0
-1 4 0
-1 7 0
-1 -8 0
-1 14 0
-11 0
-12 0
-13 0
